% Instancia 4: Satisfactible

% Formato de entrada problema Planta de Energía:

% Parámetros:

% Nc:       Número de centrales eléctricas. Entero >= 0.
% S:        Número de clientes. Entero >= 0.
% n:        Número de días para satisfacer demanda diaria de clientes. Entero >= 0.
% CaP(i):   Capacidad de producción diaria en megawatts (MW) por central eléctrica con i={0, .., Nc}. Flotante >= 0.
% CoP(i):   Costo de producción de un MW por central eléctrica con i={0, .., Nc}. Flotante >= 0.
% d(s,i):   Demanda diaria en MW de un cliente s={0, .., S} para un día i={0, .., n}. Flotantes >= 0.

Nc = 5;
S = 10;
n = 6;
CaP = [820.0, 680.0, 1000.0, 500.0, 500.0];
CoP = [100.0, 320.0, 260.0, 450.0, 300.0];
d = array2d (1..S, 1..n,
     [
      300.0, 120.0, 180.0, 600.0, 400.0, 200.0, % Cliente1 [Día1, Día2, Día3, Día4, Día5]
      120.0, 0.0, 320.0, 390.0, 210.0, 100.0,   % Cliente2 ..
      0.0, 120.0, 180.0, 600.0, 130.0, 110.0,   % Cliente3 ..
      200.0, 210.0, 0.0, 320.0, 110.0, 100.0,   % Cliente4 ..
      140.0, 24.0, 180.0, 320.0, 180.0, 290.0,  % Cliente5 ..
      0.0, 310.0, 180.0, 320.0, 410.0, 300.0,   % Cliente6 ..
      230.0, 70.0, 190.0, 0.0, 210.0, 100.0,    % Cliente7 ..
      200.0, 210.0, 380.0, 320.0, 210.0, 100.0, % Cliente8 ..
      0.0, 210.0, 480.0, 320.0, 0.0, 120.0,     % Cliente9 ..
      400.0, 80.0, 180.0, 310.0, 210.0, 100.0   % Cliente10 ..
     ]
    );
